(set-logic LIA)
(declare-var m Int)
(declare-var a Int)
(declare-var j Int)
(declare-var k Int)
(declare-var m! Int)
(declare-var a! Int)
(declare-var j! Int)
(declare-var k! Int)
(synth-fun inv-f((parameter0 Int)(parameter1 Int)(parameter2 Int)(parameter3 Int))Bool) 
(constraint (=> (and (or (<= a m) (= j 0) ) (and (< j 1) (= k 0) ) )(inv-f m a j k )))
(constraint (=> (and (inv-f m a j k ) (or (and (= j! j) (and (< k 1) (and (< m a!) (and (= m! a!) (= k! (+ k 1 )) ) ) ) ) (and (= j! j) (and (< k 1) (and (> m a!) (= k! (+ k 1 )) ) ) ) ) )(inv-f m! a! j! k! )))
(constraint (=> (inv-f m a j k )(or (< k 1) (or (< a m) (= j (- 1)) ) )))
(check-synth)

